NAME : ch130
COMMENT : Optimum tour for ch130 (6110)
TYPE : TOUR
DIMENSION : 130
TOUR_SECTION
84
124
89
58
29
82
2
113
107
7
17
45
79
117
19
3
34
53
1
49
129
70
0
40
38
116
111
114
27
61
104
127
15
44
4
10
75
108
60
128
123
63
68
85
87
25
6
96
69
106
126
103
42
33
16
30
26
18
99
14
28
23
115
94
78
86
11
80
102
76
93
88
109
97
67
62
47
24
112
31
35
83
118
110
122
100
81
56
8
55
64
51
74
73
98
72
91
37
105
52
119
57
48
71
90
5
101
9
13
66
12
95
121
54
59
50
41
43
92
36
21
46
39
22
32
20
125
120
77
65
-1
EOF